(set-info :smt-lib-version 2.6)
(set-logic QF_BV)
(set-info :source |
 Patrice Godefroid, SAGE (systematic dynamic test generation)
 For more information: http://research.microsoft.com/en-us/um/people/pg/public_psfiles/ndss2008.pdf
|)
(set-info :category "industrial")
(set-info :status unsat)
(declare-fun T1_4160 () (_ BitVec 8))
(declare-fun T1_4142 () (_ BitVec 8))
(declare-fun T1_4117 () (_ BitVec 8))
(declare-fun T1_4089 () (_ BitVec 8))
(declare-fun T1_4060 () (_ BitVec 8))
(declare-fun T1_4042 () (_ BitVec 8))
(declare-fun T2_4040 () (_ BitVec 16))
(declare-fun T1_4199 () (_ BitVec 8))
(declare-fun T1_4229 () (_ BitVec 8))
(declare-fun T1_4038 () (_ BitVec 8))
(declare-fun T2_4002 () (_ BitVec 16))
(declare-fun T1_3993 () (_ BitVec 8))
(declare-fun T2_3601 () (_ BitVec 16))
(declare-fun T1_3592 () (_ BitVec 8))
(declare-fun T1_4248 () (_ BitVec 8))
(declare-fun T4_3994 () (_ BitVec 32))
(declare-fun T4_3593 () (_ BitVec 32))
(declare-fun T1_4040 () (_ BitVec 8))
(declare-fun T1_4041 () (_ BitVec 8))
(declare-fun T1_4002 () (_ BitVec 8))
(declare-fun T1_4003 () (_ BitVec 8))
(declare-fun T1_3994 () (_ BitVec 8))
(declare-fun T1_3995 () (_ BitVec 8))
(declare-fun T1_3996 () (_ BitVec 8))
(declare-fun T1_3997 () (_ BitVec 8))
(declare-fun T1_3601 () (_ BitVec 8))
(declare-fun T1_3602 () (_ BitVec 8))
(declare-fun T1_3593 () (_ BitVec 8))
(declare-fun T1_3594 () (_ BitVec 8))
(declare-fun T1_3595 () (_ BitVec 8))
(declare-fun T1_3596 () (_ BitVec 8))
(assert (let ((?v_32 ((_ zero_extend 24) T1_4160)) (?v_30 ((_ zero_extend 24) T1_4142)) (?v_26 ((_ zero_extend 24) T1_4117)) (?v_22 ((_ zero_extend 24) T1_4089)) (?v_19 ((_ zero_extend 24) T1_4060)) (?v_16 ((_ zero_extend 24) T1_4042)) (?v_23 ((_ zero_extend 16) T2_4040))) (let ((?v_24 (bvadd ?v_23 (bvsub (_ bv4294967295 32) ?v_16)))) (let ((?v_27 (bvadd ?v_24 (bvsub (_ bv4294967295 32) ?v_19)))) (let ((?v_28 (bvadd ?v_27 (bvsub (_ bv4294967295 32) ?v_22)))) (let ((?v_35 (bvadd ?v_28 (bvsub (_ bv4294967295 32) ?v_26)))) (let ((?v_39 (bvadd ?v_35 (bvsub (_ bv4294967295 32) ?v_30)))) (let ((?v_42 (bvadd ?v_39 (bvsub (_ bv4294967295 32) ?v_32))) (?v_33 ((_ zero_extend 24) T1_4199))) (let ((?v_41 (bvadd ?v_42 (bvsub (_ bv4294967295 32) ?v_33))) (?v_34 ((_ zero_extend 24) T1_4229)) (?v_13 ((_ zero_extend 24) T1_4038)) (?v_11 ((_ zero_extend 16) T2_4002)) (?v_7 ((_ zero_extend 24) T1_3993)) (?v_5 ((_ zero_extend 16) T2_3601)) (?v_1 ((_ zero_extend 24) T1_3592))) (let ((?v_4 (bvadd ?v_1 (_ bv1 32)))) (let ((?v_8 (bvadd (bvadd ?v_4 (_ bv1581277 32)) ?v_5))) (let ((?v_10 (bvadd ?v_8 (_ bv6 32)))) (let ((?v_12 (bvadd (bvadd ?v_10 (bvadd ?v_7 (_ bv1 32))) (_ bv2 32)))) (let ((?v_14 (bvadd ?v_12 ?v_11))) (let ((?v_15 (bvadd ?v_14 (_ bv6 32)))) (let ((?v_17 (bvadd ?v_15 (bvadd ?v_13 (_ bv1 32))))) (let ((?v_20 (bvadd ?v_17 (_ bv2 32)))) (let ((?v_18 (bvadd ?v_20 ?v_16))) (let ((?v_21 (bvadd (bvadd ?v_18 (_ bv1 32)) ?v_19))) (let ((?v_25 (bvadd (bvadd ?v_21 (_ bv1 32)) ?v_22))) (let ((?v_29 (bvadd (bvadd ?v_25 (_ bv1 32)) ?v_26))) (let ((?v_31 (bvadd (bvadd ?v_29 (_ bv1 32)) ?v_30))) (let ((?v_36 (bvadd (bvadd ?v_31 (_ bv1 32)) ?v_32))) (let ((?v_40 (bvadd (bvadd ?v_36 (_ bv1 32)) ?v_33)) (?v_38 (bvadd ?v_41 (bvsub (_ bv4294967295 32) ?v_34))) (?v_37 ((_ zero_extend 24) T1_4248)) (?v_6 (bvsub ?v_7 (_ bv8 32))) (?v_2 (bvsub ?v_1 (_ bv8 32)))) (let ((?v_3 (bvadd (bvadd ?v_2 (_ bv1581286 32)) ?v_5))) (let ((?v_9 (bvadd (bvadd (bvadd (bvadd ?v_3 (_ bv15 32)) ?v_6) (_ bv2 32)) ?v_11)) (?v_0 ((_ zero_extend 24) (_ bv1 8)))) (and true (= T4_3593 (bvor (bvshl (bvor (bvshl (bvor (bvshl ((_ zero_extend 24) T1_3596) (_ bv8 32)) ((_ zero_extend 24) T1_3595)) (_ bv8 32)) ((_ zero_extend 24) T1_3594)) (_ bv8 32)) ((_ zero_extend 24) T1_3593))) (= T2_3601 (bvor (bvshl ((_ zero_extend 8) T1_3602) (_ bv8 16)) ((_ zero_extend 8) T1_3601))) (= T4_3994 (bvor (bvshl (bvor (bvshl (bvor (bvshl ((_ zero_extend 24) T1_3997) (_ bv8 32)) ((_ zero_extend 24) T1_3996)) (_ bv8 32)) ((_ zero_extend 24) T1_3995)) (_ bv8 32)) ((_ zero_extend 24) T1_3994))) (= T2_4002 (bvor (bvshl ((_ zero_extend 8) T1_4003) (_ bv8 16)) ((_ zero_extend 8) T1_4002))) (= T2_4040 (bvor (bvshl ((_ zero_extend 8) T1_4041) (_ bv8 16)) ((_ zero_extend 8) T1_4040))) (bvslt (bvsub (bvadd (bvadd (bvadd (bvadd (bvadd (bvadd (bvadd (bvadd (bvadd (bvadd (bvadd (bvadd (bvadd (bvadd (bvadd (bvadd ?v_9 (_ bv7 32)) ?v_13) (_ bv3 32)) ?v_16) ?v_0) ?v_19) ?v_0) ?v_22) ?v_0) ?v_26) ?v_0) ?v_30) ?v_0) ?v_32) ?v_0) ?v_33) (_ bv1581096 32)) (_ bv0 32)) (bvule (bvadd (bvadd ?v_4 (_ bv1581275 32)) (_ bv2 32)) (_ bv1582102 32)) (bvule ?v_2 (_ bv0 32)) (bvule (_ bv8 32) ?v_1) (not (= ?v_1 (_ bv1 32))) (bvule (bvsub ?v_3 (_ bv1581256 32)) (_ bv846 32)) (bvule (bvsub ?v_8 (_ bv1581256 32)) (_ bv846 32)) (= T4_3593 ?v_5) (bvule ?v_6 (_ bv0 32)) (bvule (_ bv8 32) ?v_7) (not (= ?v_7 (_ bv1 32))) (bvule (bvadd ?v_10 (_ bv1 32)) (_ bv1582102 32)) (bvule (bvsub ?v_9 (_ bv1581256 32)) (_ bv846 32)) (bvule (bvsub ?v_14 (_ bv1581256 32)) (_ bv846 32)) (not (= T4_3994 ?v_11)) (bvule ?v_12 (_ bv1582102 32)) (bvult ?v_13 (_ bv8 32)) (not (= ?v_13 (_ bv0 32))) (= ?v_13 (_ bv1 32)) (bvule (bvadd ?v_15 (_ bv1 32)) (_ bv1582102 32)) (bvule (bvadd ?v_18 (_ bv2 32)) (_ bv1582102 32)) (bvule (bvadd ?v_17 (_ bv3 32)) (_ bv1582102 32)) (bvule (bvadd ?v_21 (_ bv2 32)) (_ bv1582102 32)) (bvule (bvsub (bvadd ?v_20 ?v_23) (_ bv1581256 32)) (_ bv846 32)) (bvule ?v_20 (_ bv1582102 32)) (bvule (bvadd ?v_25 (_ bv2 32)) (_ bv1582102 32)) (bvule (bvadd ?v_16 (_ bv1 32)) ?v_23) (not (= ?v_23 (_ bv0 32))) (bvule (bvadd ?v_19 (_ bv1 32)) ?v_24) (not (= ?v_24 (_ bv0 32))) (bvule (bvadd ?v_29 (_ bv2 32)) (_ bv1582102 32)) (bvule (bvadd ?v_22 (_ bv1 32)) ?v_27) (not (= ?v_27 (_ bv0 32))) (bvule (bvadd ?v_26 (_ bv1 32)) ?v_28) (not (= ?v_28 (_ bv0 32))) (bvule (bvadd ?v_31 (_ bv2 32)) (_ bv1582102 32)) (bvule (bvadd (bvadd (bvadd ?v_40 (_ bv1 32)) ?v_34) (_ bv2 32)) (_ bv1582102 32)) (= (bvadd ?v_38 (bvsub (_ bv4294967295 32) ?v_37)) (_ bv0 32)) (bvule (bvadd ?v_30 (_ bv1 32)) ?v_35) (not (= ?v_35 (_ bv0 32))) (bvule (bvadd ?v_36 (_ bv2 32)) (_ bv1582102 32)) (bvule (bvadd ?v_37 (_ bv1 32)) ?v_38) (not (= ?v_38 (_ bv0 32))) (not (= ?v_39 (_ bv0 32))) (bvule (bvadd ?v_32 (_ bv1 32)) ?v_39) (bvule (bvadd ?v_40 (_ bv2 32)) (_ bv1582102 32)) (bvule (bvadd ?v_34 (_ bv1 32)) ?v_41) (not (= ?v_41 (_ bv0 32))) (not (= ?v_42 (_ bv0 32))) (bvule (bvadd ?v_33 (_ bv1 32)) ?v_42))))))))))))))))))))))))))))
(check-sat)
(exit)
